networks/zoo_80_936/zoo_80_936.txt
Number of groups: 44.999999999750003
Flow 104: {4 5} {5 3} {3 36} {36 76} 
Flow 117: {23 14} {14 12} {12 52} 
Flow 120: {13 15} {15 55} 
Flow 123: {9 10} {10 19} {19 59} 
Flow 124: {5 4} {4 20} {20 60} 
Flow 139: {3 37} {37 77} 
Flow 162: {6 5} {5 32} {32 72} 
Flow 183: {8 26} {26 25} {25 65} 
Flow 217: {7 5} {5 30} {30 29} {29 28} {28 68} 
Flow 250: {1 31} {31 71} 
Flow 271: {10 30} {30 24} {24 23} {23 63} 
Flow 288: {16 30} {30 5} {5 1} {1 41} 
Flow 331: {14 13} {13 16} {16 10} {10 26} {26 66} 
Flow 334: {14 23} {23 28} {28 29} {29 69} 
Flow 339: {10 9} {9 8} {8 35} {35 34} {34 74} 
Flow 355: {15 14} {14 54} 
Flow 361: {15 13} {13 23} {23 27} {27 67} 
Flow 414: {18 5} {5 9} {9 26} 
Flow 425: {18 31} {31 40} {40 80} 
Flow 467: {30 16} {16 56} 
Flow 483: {4 31} 
Flow 486: {25 35} {35 1} {1 3} {3 43} 
Flow 490: {25 26} {26 8} {8 7} {7 47} 
Flow 523: {26 10} {10 16} {16 13} {13 14} 
Flow 527: {26 9} {9 5} {5 18} {18 58} 
Flow 537: {35 33} 
Flow 560: {27 23} {23 24} {24 30} {30 70} 
Flow 573: {24 6} {6 4} {4 44} 
Flow 579: {29 30} {30 10} {10 50} 
Flow 609: {28 23} {23 13} {13 53} 
Flow 622: {2 34} 
Flow 672: {31 4} {4 6} {6 24} {24 64} 
Flow 685: {31 40} {40 39} {39 79} 
Flow 694: {32 5} {5 7} {7 8} {8 48} 
Flow 706: {32 3} {3 33} {33 73} 
Flow 717: {33 3} {3 5} {5 45} 
Flow 728: {33 35} {35 25} 
Flow 747: {34 2} {2 1} {1 5} {5 6} {6 46} 
Flow 750: {34 35} {35 8} {8 9} {9 49} 
Flow 799: {1 31} {31 40} 
Flow 824: {36 37} {37 38} {38 78} 
Flow 825: {36 3} {3 39} {39 79} 
Flow 853: {37 36} 
Flow 875: {38 37} {37 3} {3 1} {1 35} {35 75} 
Flow 900: {39 40} {40 31} 
Flow 909: {31 1} {1 2} {2 42} 
Flow 930: {40 39} {39 3} {3 32} 
Flow 936: {40 39} {39 79} 
Time taken running everything: 178 seconds
