networks/zoo_80_936/zoo_80_936.sol
<?xml version = "1.0" encoding="UTF-8" standalone="yes"?>
<CPLEXSolution version="1.2">
 <header
   problemName="networks/zoo_80_936/zoo_80_936.lp"
   solutionName="incumbent"
   solutionIndex="-1"
   objectiveValue="45"
   solutionTypeValue="3"
   solutionTypeString="primal"
   solutionStatusValue="101"
   solutionStatusString="integer optimal solution"
   solutionMethodString="mip"
   primalFeasible="1"
   dualFeasible="1"
   MIPNodes="3624"
   MIPIterations="1770221"
   writeLevel="3"/>
 <quality
   epInt="1.0000000000000001e-05"
   epRHS="9.9999999999999995e-07"
   maxIntInfeas="0"
   maxPrimalInfeas="2.000000165480742e-09"
   maxX="4.0000000020000002"
   maxSlack="10.000000002"/>
 <variables>
  <variable name="Y(93,35)" index="6654" value="1"/>
  <variable name="Y(120,15)" index="8581" value="1"/>
  <variable name="Y(123,19)" index="8800" value="1"/>
  <variable name="Y(124,20)" index="8873" value="1"/>
  <variable name="Y(139,37)" index="9968" value="1"/>
  <variable name="Y(183,8)" index="13111" value="1"/>
  <variable name="Y(221,5)" index="15844" value="1"/>
  <variable name="Y(276,28)" index="19823" value="1"/>
  <variable name="Y(321,4)" index="23043" value="1"/>
  <variable name="Y(325,8)" index="23335" value="1"/>
  <variable name="Y(332,27)" index="23854" value="1"/>
  <variable name="Y(335,30)" index="24073" value="1"/>
  <variable name="Y(355,14)" index="25500" value="1"/>
  <variable name="Y(363,29)" index="26088" value="1"/>
  <variable name="Y(373,4)" index="26787" value="1"/>
  <variable name="Y(395,31)" index="28394" value="1"/>
  <variable name="Y(414,26)" index="29757" value="1"/>
  <variable name="Y(418,18)" index="30039" value="1"/>
  <variable name="Y(439,18)" index="31551" value="1"/>
  <variable name="Y(469,25)" index="33716" value="1"/>
  <variable name="Y(484,1)" index="34776" value="1"/>
  <variable name="Y(489,6)" index="35141" value="1"/>
  <variable name="Y(493,10)" index="35433" value="1"/>
  <variable name="Y(497,23)" index="35730" value="1"/>
  <variable name="Y(523,12)" index="37594" value="1"/>
  <variable name="Y(537,35)" index="38622" value="1"/>
  <variable name="Y(552,13)" index="39683" value="1"/>
  <variable name="Y(610,23)" index="43866" value="1"/>
  <variable name="Y(621,33)" index="44668" value="1"/>
  <variable name="Y(683,3)" index="49106" value="1"/>
  <variable name="Y(685,39)" index="49282" value="1"/>
  <variable name="Y(689,3)" index="49538" value="1"/>
  <variable name="Y(693,7)" index="49830" value="1"/>
  <variable name="Y(708,35)" index="50934" value="1"/>
  <variable name="Y(735,32)" index="52875" value="1"/>
  <variable name="Y(736,35)" index="52950" value="1"/>
  <variable name="Y(746,5)" index="53644" value="1"/>
  <variable name="Y(750,9)" index="53936" value="1"/>
  <variable name="Y(824,38)" index="59289" value="1"/>
  <variable name="Y(826,40)" index="59435" value="1"/>
  <variable name="Y(853,36)" index="61375" value="1"/>
  <variable name="Y(858,2)" index="61705" value="1"/>
  <variable name="Y(890,16)" index="64022" value="1"/>
  <variable name="Y(922,24)" index="66331" value="1"/>
  <variable name="Y(932,34)" index="67061" value="1"/>
  <variable name="X(1,2,858)" index="68249" value="1"/>
  <variable name="X(1,3,683)" index="69010" value="1"/>
  <variable name="X(1,5,746)" index="70009" value="1"/>
  <variable name="X(1,31,395)" index="70594" value="1"/>
  <variable name="X(1,35,93)" index="71228" value="1"/>
  <variable name="X(1,41,484)" index="72555" value="1"/>
  <variable name="X(2,1,746)" index="73753" value="1"/>
  <variable name="X(2,34,932)" index="74875" value="1"/>
  <variable name="X(2,42,858)" index="75737" value="1"/>
  <variable name="X(3,1,858)" index="76673" value="1"/>
  <variable name="X(3,5,890)" index="77641" value="1"/>
  <variable name="X(3,32,735)" index="78422" value="1"/>
  <variable name="X(3,33,621)" index="79244" value="1"/>
  <variable name="X(3,36,683)" index="80242" value="1"/>
  <variable name="X(3,37,139)" index="80634" value="1"/>
  <variable name="X(3,39,826)" index="82257" value="1"/>
  <variable name="X(3,43,689)" index="83056" value="1"/>
  <variable name="X(4,5,93)" index="83396" value="1"/>
  <variable name="X(4,6,922)" index="85161" value="1"/>
  <variable name="X(4,20,124)" index="85299" value="1"/>
  <variable name="X(4,31,373)" index="86484" value="1"/>
  <variable name="X(4,44,321)" index="87368" value="1"/>
  <variable name="X(5,1,93)" index="88076" value="1"/>
  <variable name="X(5,3,621)" index="89540" value="1"/>
  <variable name="X(5,4,124)" index="89979" value="1"/>
  <variable name="X(5,6,489)" index="91280" value="1"/>
  <variable name="X(5,7,693)" index="92420" value="1"/>
  <variable name="X(5,9,414)" index="93077" value="1"/>
  <variable name="X(5,18,439)" index="94038" value="1"/>
  <variable name="X(5,30,890)" index="95425" value="1"/>
  <variable name="X(5,32,221)" index="95692" value="1"/>
  <variable name="X(5,45,746)" index="97153" value="1"/>
  <variable name="X(6,4,321)" index="97664" value="1"/>
  <variable name="X(6,5,439)" index="98718" value="1"/>
  <variable name="X(6,24,922)" index="100137" value="1"/>
  <variable name="X(6,46,489)" index="100640" value="1"/>
  <variable name="X(7,5,221)" index="101308" value="1"/>
  <variable name="X(7,8,183)" index="102206" value="1"/>
  <variable name="X(7,47,693)" index="103652" value="1"/>
  <variable name="X(8,7,221)" index="104116" value="1"/>
  <variable name="X(8,9,750)" index="105581" value="1"/>
  <variable name="X(8,26,183)" index="105950" value="1"/>
  <variable name="X(8,35,537)" index="107240" value="1"/>
  <variable name="X(8,48,325)" index="107964" value="1"/>
  <variable name="X(9,5,489)" index="109064" value="1"/>
  <variable name="X(9,8,325)" index="109836" value="1"/>
  <variable name="X(9,10,123)" index="110570" value="1"/>
  <variable name="X(9,26,414)" index="111797" value="1"/>
  <variable name="X(9,49,750)" index="113069" value="1"/>
  <variable name="X(10,9,325)" index="113580" value="1"/>
  <variable name="X(10,16,523)" index="114714" value="1"/>
  <variable name="X(10,19,123)" index="115250" value="1"/>
  <variable name="X(10,26,469)" index="116532" value="1"/>
  <variable name="X(10,30,497)" index="117496" value="1"/>
  <variable name="X(10,50,493)" index="118428" value="1"/>
  <variable name="X(12,52,523)" index="119394" value="1"/>
  <variable name="X(13,14,523)" index="120330" value="1"/>
  <variable name="X(13,15,120)" index="120863" value="1"/>
  <variable name="X(13,16,335)" index="122014" value="1"/>
  <variable name="X(13,23,363)" index="122978" value="1"/>
  <variable name="X(13,53,552)" index="124103" value="1"/>
  <variable name="X(14,12,523)" index="125010" value="1"/>
  <variable name="X(14,13,335)" index="125758" value="1"/>
  <variable name="X(14,23,321)" index="126680" value="1"/>
  <variable name="X(14,54,355)" index="127650" value="1"/>
  <variable name="X(15,13,363)" index="128594" value="1"/>
  <variable name="X(15,14,355)" index="129522" value="1"/>
  <variable name="X(15,55,120)" index="130223" value="1"/>
  <variable name="X(16,10,325)" index="131364" value="1"/>
  <variable name="X(16,13,523)" index="132498" value="1"/>
  <variable name="X(16,30,335)" index="133246" value="1"/>
  <variable name="X(16,56,890)" index="134737" value="1"/>
  <variable name="X(18,5,414)" index="135197" value="1"/>
  <variable name="X(18,31,418)" index="136137" value="1"/>
  <variable name="X(18,58,439)" index="137094" value="1"/>
  <variable name="X(19,59,123)" index="137714" value="1"/>
  <variable name="X(20,60,124)" index="138651" value="1"/>
  <variable name="X(23,13,552)" index="140015" value="1"/>
  <variable name="X(23,14,610)" index="141009" value="1"/>
  <variable name="X(23,24,321)" index="141656" value="1"/>
  <variable name="X(23,27,332)" index="142603" value="1"/>
  <variable name="X(23,28,363)" index="143570" value="1"/>
  <variable name="X(23,63,497)" index="144640" value="1"/>
  <variable name="X(24,6,321)" index="145400" value="1"/>
  <variable name="X(24,23,497)" index="146512" value="1"/>
  <variable name="X(24,30,469)" index="147420" value="1"/>
  <variable name="X(24,64,922)" index="148809" value="1"/>
  <variable name="X(25,26,493)" index="149316" value="1"/>
  <variable name="X(25,35,484)" index="150243" value="1"/>
  <variable name="X(25,65,469)" index="151164" value="1"/>
  <variable name="X(26,8,537)" index="152168" value="1"/>
  <variable name="X(26,9,489)" index="153056" value="1"/>
  <variable name="X(26,10,493)" index="153996" value="1"/>
  <variable name="X(26,25,469)" index="154908" value="1"/>
  <variable name="X(26,66,414)" index="155789" value="1"/>
  <variable name="X(27,23,552)" index="156863" value="1"/>
  <variable name="X(27,67,332)" index="157579" value="1"/>
  <variable name="X(28,23,610)" index="158793" value="1"/>
  <variable name="X(28,29,363)" index="159482" value="1"/>
  <variable name="X(28,68,276)" index="160331" value="1"/>
  <variable name="X(29,28,276)" index="161267" value="1"/>
  <variable name="X(29,30,621)" index="162548" value="1"/>
  <variable name="X(29,69,363)" index="163226" value="1"/>
  <variable name="X(30,5,621)" index="164420" value="1"/>
  <variable name="X(30,10,469)" index="165204" value="1"/>
  <variable name="X(30,16,890)" index="166561" value="1"/>
  <variable name="X(30,24,497)" index="167104" value="1"/>
  <variable name="X(30,29,276)" index="167819" value="1"/>
  <variable name="X(30,70,335)" index="168814" value="1"/>
  <variable name="X(31,1,683)" index="170098" value="1"/>
  <variable name="X(31,4,922)" index="171273" value="1"/>
  <variable name="X(31,40,685)" index="171972" value="1"/>
  <variable name="X(31,71,395)" index="172618" value="1"/>
  <variable name="X(32,3,689)" index="173848" value="1"/>
  <variable name="X(32,5,693)" index="174788" value="1"/>
  <variable name="X(32,72,735)" index="175766" value="1"/>
  <variable name="X(33,3,735)" index="176702" value="1"/>
  <variable name="X(33,35,736)" index="177639" value="1"/>
  <variable name="X(33,73,621)" index="178460" value="1"/>
  <variable name="X(34,2,746)" index="179521" value="1"/>
  <variable name="X(34,35,750)" index="180461" value="1"/>
  <variable name="X(34,74,932)" index="181579" value="1"/>
  <variable name="X(35,1,484)" index="182067" value="1"/>
  <variable name="X(35,8,750)" index="183269" value="1"/>
  <variable name="X(35,25,93)" index="183548" value="1"/>
  <variable name="X(35,33,537)" index="184928" value="1"/>
  <variable name="X(35,34,736)" index="186063" value="1"/>
  <variable name="X(35,75,708)" index="186971" value="1"/>
  <variable name="X(36,3,826)" index="188025" value="1"/>
  <variable name="X(36,37,824)" index="188959" value="1"/>
  <variable name="X(36,76,853)" index="189924" value="1"/>
  <variable name="X(37,3,858)" index="190865" value="1"/>
  <variable name="X(37,36,853)" index="191796" value="1"/>
  <variable name="X(37,38,824)" index="192703" value="1"/>
  <variable name="X(37,77,139)" index="192954" value="1"/>
  <variable name="X(38,37,858)" index="194609" value="1"/>
  <variable name="X(38,78,824)" index="195511" value="1"/>
  <variable name="X(39,3,890)" index="196513" value="1"/>
  <variable name="X(39,40,826)" index="197385" value="1"/>
  <variable name="X(39,79,685)" index="198180" value="1"/>
  <variable name="X(40,31,922)" index="199353" value="1"/>
  <variable name="X(40,39,685)" index="200052" value="1"/>
  <variable name="X(40,80,826)" index="201129" value="1"/>
  <variable name="C(93,5)" index="201574" value="1"/>
  <variable name="C(93,1)" index="201575" value="2"/>
  <variable name="C(93,35)" index="201576" value="3"/>
  <variable name="C(120,15)" index="201673" value="1"/>
  <variable name="C(123,10)" index="201681" value="1"/>
  <variable name="C(123,19)" index="201682" value="2"/>
  <variable name="C(124,4)" index="201684" value="1"/>
  <variable name="C(124,20)" index="201685" value="2"/>
  <variable name="C(139,37)" index="201734" value="1"/>
  <variable name="C(183,8)" index="201892" value="1"/>
  <variable name="C(221,7)" index="202050" value="1"/>
  <variable name="C(221,5)" index="202051" value="2"/>
  <variable name="C(276,29)" index="202251" value="1"/>
  <variable name="C(276,28)" index="202252" value="2"/>
  <variable name="C(321,23)" index="202461" value="1"/>
  <variable name="C(321,24)" index="202462" value="2"/>
  <variable name="C(321,6)" index="202463" value="3"/>
  <variable name="C(321,4)" index="202464" value="4"/>
  <variable name="C(325,10)" index="202483" value="1"/>
  <variable name="C(325,9)" index="202484" value="2"/>
  <variable name="C(325,8)" index="202485" value="3"/>
  <variable name="C(332,27)" index="202509" value="1"/>
  <variable name="C(335,13)" index="202518" value="1"/>
  <variable name="C(335,16)" index="202519" value="2"/>
  <variable name="C(335,30)" index="202520" value="3"/>
  <variable name="C(355,14)" index="202639" value="1"/>
  <variable name="C(363,13)" index="202670" value="1"/>
  <variable name="C(363,23)" index="202671" value="2"/>
  <variable name="C(363,28)" index="202672" value="3"/>
  <variable name="C(363,29)" index="202673" value="4"/>
  <variable name="C(395,31)" index="202819" value="1"/>
  <variable name="C(414,5)" index="202898" value="1"/>
  <variable name="C(414,9)" index="202899" value="2"/>
  <variable name="C(414,26)" index="202900" value="2.9999999999999991"/>
  <variable name="C(439,5)" index="203000" value="1"/>
  <variable name="C(439,18)" index="203001" value="2"/>
  <variable name="C(469,30)" index="203125" value="1"/>
  <variable name="C(469,10)" index="203126" value="2"/>
  <variable name="C(469,26)" index="203127" value="3"/>
  <variable name="C(469,25)" index="203128" value="4"/>
  <variable name="C(484,35)" index="203190" value="1"/>
  <variable name="C(484,1)" index="203191" value="2"/>
  <variable name="C(489,9)" index="203211" value="1"/>
  <variable name="C(489,5)" index="203212" value="2"/>
  <variable name="C(489,6)" index="203213" value="3"/>
  <variable name="C(493,26)" index="203225" value="1"/>
  <variable name="C(493,10)" index="203226" value="2"/>
  <variable name="C(497,30)" index="203245" value="1"/>
  <variable name="C(497,24)" index="203246" value="2"/>
  <variable name="C(497,23)" index="203247" value="3"/>
  <variable name="C(523,16)" index="203350" value="1.0000000020000002"/>
  <variable name="C(523,13)" index="203351" value="2.0000000020000002"/>
  <variable name="C(523,14)" index="203352" value="3.0000000020000002"/>
  <variable name="C(523,12)" index="203353" value="4.0000000020000002"/>
  <variable name="C(537,8)" index="203409" value="1"/>
  <variable name="C(537,35)" index="203410" value="2"/>
  <variable name="C(552,23)" index="203488" value="1"/>
  <variable name="C(552,13)" index="203489" value="2"/>
  <variable name="C(610,23)" index="203767" value="1"/>
  <variable name="C(621,30)" index="203805" value="1"/>
  <variable name="C(621,5)" index="203806" value="2"/>
  <variable name="C(621,3)" index="203807" value="3"/>
  <variable name="C(621,33)" index="203808" value="4"/>
  <variable name="C(683,1)" index="204048" value="1"/>
  <variable name="C(683,3)" index="204049" value="2"/>
  <variable name="C(685,40)" index="204057" value="1"/>
  <variable name="C(685,39)" index="204058" value="2"/>
  <variable name="C(689,3)" index="204069" value="1"/>
  <variable name="C(693,5)" index="204079" value="1"/>
  <variable name="C(693,7)" index="204080" value="2"/>
  <variable name="C(735,3)" index="204260" value="1"/>
  <variable name="C(735,32)" index="204261" value="2"/>
  <variable name="C(736,35)" index="204263" value="1"/>
  <variable name="C(746,2)" index="204296" value="1"/>
  <variable name="C(746,1)" index="204297" value="2"/>
  <variable name="C(746,5)" index="204298" value="3"/>
  <variable name="C(750,35)" index="204312" value="1"/>
  <variable name="C(750,8)" index="204313" value="2"/>
  <variable name="C(750,9)" index="204314" value="3"/>
  <variable name="C(824,36)" index="204646" value="2"/>
  <variable name="C(824,37)" index="204647" value="3"/>
  <variable name="C(824,38)" index="204648" value="4"/>
  <variable name="C(826,3)" index="204653" value="1"/>
  <variable name="C(826,39)" index="204654" value="2"/>
  <variable name="C(826,40)" index="204655" value="3"/>
  <variable name="C(853,36)" index="204775" value="1"/>
  <variable name="C(858,37)" index="204790" value="1"/>
  <variable name="C(858,3)" index="204791" value="2"/>
  <variable name="C(858,1)" index="204792" value="3"/>
  <variable name="C(858,2)" index="204793" value="4"/>
  <variable name="C(890,3)" index="204945" value="1"/>
  <variable name="C(890,5)" index="204946" value="2"/>
  <variable name="C(890,30)" index="204947" value="3"/>
  <variable name="C(890,16)" index="204948" value="4"/>
  <variable name="C(922,31)" index="205092" value="1"/>
  <variable name="C(922,4)" index="205093" value="2"/>
  <variable name="C(922,6)" index="205094" value="3"/>
  <variable name="C(922,24)" index="205095" value="4"/>
  <variable name="C(932,34)" index="205146" value="1"/>
 </variables>
</CPLEXSolution>
